(set-info :smt-lib-version 2.7)
(set-logic QF_NIA)
(set-info :source  | 
Generated by: Johannes Bauer
Generated on: 2026-06-18
Generator: mgm A12 Test Data Generator
Application: ELSTER
Target solver: Z3, Yices2, CVC5
Script is based on the ELSTER form: capital gains tax registration (A / KapEStInvStG)
Characteristic of the form: easy.
In this script, all terms of the form (* x1 x2 x3 ...) are in the form (* x1 c2 c3 ...),
all terms of the form (div x y) are in the form (div x c) and the symbol mod is exclusively used in the form (mod x c),
where x, y, and x1, x2, x3 ... are free constants and c, c2, c3 ... are terms in the form n or (-n) for some numeral n.
The script starts with the base constraints, which define a valid data set for the corresponding form. After the first (push 1), control constraints follow.
The goal of the control constraints in this script is to fill up a data set with values, after the characteristics of the high test coverage were placed.
number variables: 167, number constraints: 151
"https://www.elster.de/eportal/start?locale=en_US"
"https://www.mgm-tp.com/q12-tdg.html"
"https://a12.ai/public-sector"
|)
(set-info :license "https://creativecommons.org/licenses/by/4.0/")
(set-info :category "industrial")
(set-info :major-phase |variable declarations|)
(declare-fun B1-F () Bool)
(declare-fun B2-F () Bool)
(declare-fun I3-i () Int)
(declare-fun I4-N () Int)
(declare-fun B5-F () Bool)
(declare-fun I5-i () Int)
(declare-fun B6-F () Bool)
(declare-fun B7-F () Bool)
(declare-fun B8-F () Bool)
(declare-fun B9-F () Bool)
(declare-fun I9-y () Int)
(declare-fun B10-F () Bool)
(declare-fun I10-N () Int)
(declare-fun B11-F () Bool)
(declare-fun I12 () Int)
(declare-fun I13 () Int)
(declare-fun I14 () Int)
(declare-fun I15 () Int)
(declare-fun I16 () Int)
(declare-fun I17 () Int)
(declare-fun I18 () Int)
(declare-fun I19 () Int)
(declare-fun I20 () Int)
(declare-fun I21-s-y () Int)
(declare-fun I21-s-m () Int)
(declare-fun I21-s-d () Int)
(declare-fun I21-e-y () Int)
(declare-fun I21-e-m () Int)
(declare-fun I21-e-d () Int)
(declare-fun I22 () Int)
(declare-fun I23 () Int)
(declare-fun I24 () Int)
(declare-fun I25 () Int)
(declare-fun I26 () Int)
(declare-fun I27 () Int)
(declare-fun I28 () Int)
(declare-fun I29 () Int)
(declare-fun I30 () Int)
(declare-fun I31-s-y () Int)
(declare-fun I31-s-m () Int)
(declare-fun I31-s-d () Int)
(declare-fun I31-e-y () Int)
(declare-fun I31-e-m () Int)
(declare-fun I31-e-d () Int)
(declare-fun I32 () Int)
(declare-fun I33 () Int)
(declare-fun I34 () Int)
(declare-fun I35 () Int)
(declare-fun I36 () Int)
(declare-fun I37 () Int)
(declare-fun I38 () Int)
(declare-fun I39 () Int)
(declare-fun I40 () Int)
(declare-fun B41-F () Bool)
(declare-fun I41-N () Int)
(declare-fun B42-F () Bool)
(declare-fun I42-y () Int)
(declare-fun I42-m () Int)
(declare-fun I42-d () Int)
(declare-fun B43-F () Bool)
(declare-fun I43-y () Int)
(declare-fun I43-m () Int)
(declare-fun I43-d () Int)
(declare-fun B44-F () Bool)
(declare-fun I44-y () Int)
(declare-fun I44-m () Int)
(declare-fun I44-d () Int)
(declare-fun B45-F () Bool)
(declare-fun B46-F () Bool)
(declare-fun B47-F () Bool)
(declare-fun I47 () Int)
(declare-fun B48-F () Bool)
(declare-fun I48 () Int)
(declare-fun B49-F () Bool)
(declare-fun I49 () Int)
(declare-fun B50-F () Bool)
(declare-fun B51-F () Bool)
(declare-fun B52-F () Bool)
(declare-fun I52 () Int)
(declare-fun B53-F () Bool)
(declare-fun I53 () Int)
(declare-fun B54-F () Bool)
(declare-fun I54 () Int)
(declare-fun B55-F () Bool)
(declare-fun B56-F () Bool)
(declare-fun B57-F () Bool)
(declare-fun I57 () Int)
(declare-fun B58-F () Bool)
(declare-fun I58 () Int)
(declare-fun B59-F () Bool)
(declare-fun I59 () Int)
(declare-fun I60 () Int)
(declare-fun I61 () Int)
(declare-fun I62 () Int)
(declare-fun I63 () Int)
(declare-fun I64 () Int)
(declare-fun I65 () Int)
(declare-fun I66 () Int)
(declare-fun I67 () Int)
(declare-fun I68 () Int)
(declare-fun I69 () Int)
(declare-fun I70 () Int)
(declare-fun I71 () Int)
(declare-fun B72-F () Bool)
(declare-fun B73-F () Bool)
(declare-fun I73 () Int)
(declare-fun B74-F () Bool)
(declare-fun I74 () Int)
(declare-fun B75-F () Bool)
(declare-fun B76-F () Bool)
(declare-fun I76-y () Int)
(declare-fun I76-m () Int)
(declare-fun I76-d () Int)
(declare-fun B77-F () Bool)
(declare-fun B78-F () Bool)
(declare-fun I78 () Int)
(declare-fun B79-F () Bool)
(declare-fun I79 () Int)
(declare-fun B80-F () Bool)
(declare-fun B81-F () Bool)
(declare-fun B82-F () Bool)
(declare-fun I82 () Int)
(declare-fun B83-F () Bool)
(declare-fun I83 () Int)
(declare-fun B84-F () Bool)
(declare-fun I84 () Int)
(declare-fun B85-F () Bool)
(declare-fun I85 () Int)
(declare-fun B86-F () Bool)
(declare-fun I86 () Int)
(declare-fun B87-F () Bool)
(declare-fun I87 () Int)
(declare-fun B88-F () Bool)
(declare-fun I88 () Int)
(declare-fun B89-F () Bool)
(declare-fun I89 () Int)
(declare-fun B90-F () Bool)
(declare-fun I90 () Int)
(declare-fun B91-F () Bool)
(declare-fun I91 () Int)
(declare-fun B92-F () Bool)
(declare-fun I92 () Int)
(declare-fun B93-F () Bool)
(declare-fun I93 () Int)
(declare-fun B94-F () Bool)
(declare-fun I94 () Int)
(declare-fun B95-F () Bool)
(declare-fun I95 () Int)
(declare-fun B96-F () Bool)
(declare-fun I96 () Int)
(declare-fun B97-F () Bool)
(declare-fun I97 () Int)
(declare-fun B98-F () Bool)
(declare-fun I98 () Int)
(declare-fun B99-F () Bool)
(declare-fun I100 () Int)
(declare-fun B101-F () Bool)
(declare-fun B102-F () Bool)
(declare-fun B103-F () Bool)
(declare-fun B104-F () Bool)
(declare-fun B105-F () Bool)
(declare-fun B106-F () Bool)
(declare-fun B107-F () Bool)
(declare-fun B108-F () Bool)
(declare-fun B109-F () Bool)
(declare-fun B110-F () Bool)
(declare-fun B111-F () Bool)
(set-info :major-phase |base constraints|)
(set-info :base-constraint-type ||)
(assert (or B1-F B9-F B10-F))
(set-info :base-constraint-type |constraints defining hierarchy (group is filled, if a child is filled)|)
(assert (= B75-F (or B76-F B77-F)))
(assert (= B77-F (or B78-F B79-F)))
(assert (= B101-F (or B102-F B103-F)))
(assert (= B72-F (or B73-F B74-F)))
(assert (or B41-F B42-F B43-F B44-F B45-F B50-F B55-F))
(assert (= B45-F (or B46-F B47-F B48-F B49-F)))
(assert (= B50-F (or B51-F B52-F B53-F B54-F)))
(assert (= B55-F (or B56-F B57-F B58-F B59-F)))
(assert (= B104-F (or B105-F B106-F)))
(assert (= B106-F (or B107-F B108-F B109-F B110-F)))
(assert (= B80-F (or B81-F B99-F)))
(assert (= B81-F (or B82-F B83-F B84-F B85-F B86-F B87-F B88-F B89-F B90-F B91-F B92-F B93-F B94-F B95-F B96-F B97-F B98-F)))
(set-info :base-constraint-type |domainconstraints number-fields|)
(assert (ite B78-F (and (<= I78 999999999999) (>= I78 0)) (= I78 0)))
(assert (ite B79-F (and (<= I79 999999999999) (>= I79 0)) (= I79 0)))
(assert (ite B73-F (and (<= I73 999999999999) (>= I73 (- 999999999999))) (= I73 0)))
(assert (ite B74-F (and (<= I74 99999999999999) (>= I74 (- 99999999999999))) (= I74 0)))
(assert (= I12 0))
(assert (= I13 0))
(assert (= I14 0))
(assert (= I15 0))
(assert (= I16 0))
(assert (= I17 0))
(assert (= I18 0))
(assert (= I19 0))
(assert (= I20 0))
(assert (ite B47-F (and (<= I47 999999999999) (>= I47 (- 999999999999))) (= I47 0)))
(assert (ite B48-F (and (<= I48 999999999999) (>= I48 (- 999999999999))) (= I48 0)))
(assert (ite B49-F (and (<= I49 99999999999999) (>= I49 (- 99999999999999))) (= I49 0)))
(assert (ite B52-F (and (<= I52 999999999999) (>= I52 (- 999999999999))) (= I52 0)))
(assert (ite B53-F (and (<= I53 999999999999) (>= I53 (- 999999999999))) (= I53 0)))
(assert (ite B54-F (and (<= I54 99999999999999) (>= I54 (- 99999999999999))) (= I54 0)))
(assert (ite B57-F (and (<= I57 999999999999) (>= I57 (- 999999999999))) (= I57 0)))
(assert (ite B58-F (and (<= I58 999999999999) (>= I58 (- 999999999999))) (= I58 0)))
(assert (ite B59-F (and (<= I59 99999999999999) (>= I59 (- 99999999999999))) (= I59 0)))
(assert (= I60 0))
(assert (= I61 0))
(assert (= I62 0))
(assert (= I63 0))
(assert (= I64 0))
(assert (= I65 0))
(assert (= I66 0))
(assert (= I67 0))
(assert (= I68 0))
(assert (= I69 0))
(assert (= I70 0))
(assert (= I71 0))
(assert (= I22 0))
(assert (= I23 0))
(assert (= I24 0))
(assert (= I25 0))
(assert (= I26 0))
(assert (= I27 0))
(assert (= I28 0))
(assert (= I29 0))
(assert (= I30 0))
(assert (= I32 0))
(assert (= I33 0))
(assert (= I34 0))
(assert (= I35 0))
(assert (= I36 0))
(assert (= I37 0))
(assert (= I38 0))
(assert (= I39 0))
(assert (= I40 0))
(assert (ite B85-F (and (<= I85 99999999999999) (>= I85 (- 9999999999999))) (= I85 0)))
(assert (ite B84-F (and (<= I84 99999999999999) (>= I84 (- 9999999999999))) (= I84 0)))
(assert (ite B82-F (and (<= I82 99999999999999) (>= I82 (- 9999999999999))) (= I82 0)))
(assert (ite B83-F (and (<= I83 99999999999999) (>= I83 (- 9999999999999))) (= I83 0)))
(assert (ite B86-F (and (<= I86 99999999999999) (>= I86 (- 9999999999999))) (= I86 0)))
(assert (ite B88-F (and (<= I88 99999999999999) (>= I88 (- 9999999999999))) (= I88 0)))
(assert (ite B87-F (and (<= I87 99999999999999) (>= I87 (- 9999999999999))) (= I87 0)))
(assert (ite B89-F (and (<= I89 99999999999999) (>= I89 (- 9999999999999))) (= I89 0)))
(assert (ite B90-F (and (<= I90 99999999999999) (>= I90 (- 9999999999999))) (= I90 0)))
(assert (ite B91-F (and (<= I91 99999999999999) (>= I91 (- 9999999999999))) (= I91 0)))
(assert (ite B92-F (and (<= I92 99999999999999) (>= I92 (- 9999999999999))) (= I92 0)))
(assert (ite B96-F (and (<= I96 99999999999999) (>= I96 (- 9999999999999))) (= I96 0)))
(assert (ite B93-F (and (<= I93 99999999999999) (>= I93 (- 9999999999999))) (= I93 0)))
(assert (ite B94-F (and (<= I94 99999999999999) (>= I94 (- 9999999999999))) (= I94 0)))
(assert (ite B95-F (and (<= I95 99999999999999) (>= I95 (- 9999999999999))) (= I95 0)))
(assert (ite B97-F (and (<= I97 99999999999999) (>= I97 (- 9999999999999))) (= I97 0)))
(assert (ite B98-F (and (<= I98 99999999999999) (>= I98 (- 9999999999999))) (= I98 0)))
(assert (ite B99-F (and (<= I100 99999999999999) (>= I100 (- 9999999999999))) (= I100 0)))
(set-info :base-constraint-type |domainconstraints date-fields|)
(assert (and (ite B76-F (and (> I76-y 1900) (< I76-y 2100)) (= I76-y 0)) (ite B76-F (and (> I76-m 0) (<= I76-m 12)) (= I76-m 0)) (ite B76-F (and (> I76-d 0) (<= I76-d (ite (or (= I76-m 0) (= I76-m 1) (= I76-m 3) (= I76-m 5) (= I76-m 7) (= I76-m 8) (= I76-m 10) (= I76-m 12)) 31 (ite (or (= I76-m 4) (= I76-m 6) (= I76-m 9) (= I76-m 11)) 30 (ite (= (mod I76-y 4) 0) 29 28))))) (= I76-d 0))))
(assert (ite B9-F (and (> I9-y 1900) (< I9-y 2100)) (= I9-y 0)))
(assert (and (ite B43-F (and (> I43-y 1900) (< I43-y 2100)) (= I43-y 0)) (ite B43-F (and (> I43-m 0) (<= I43-m 12)) (= I43-m 0)) (ite B43-F (and (> I43-d 0) (<= I43-d (ite (or (= I43-m 0) (= I43-m 1) (= I43-m 3) (= I43-m 5) (= I43-m 7) (= I43-m 8) (= I43-m 10) (= I43-m 12)) 31 (ite (or (= I43-m 4) (= I43-m 6) (= I43-m 9) (= I43-m 11)) 30 (ite (= (mod I43-y 4) 0) 29 28))))) (= I43-d 0))))
(assert (and (ite B42-F (and (> I42-y 1900) (< I42-y 2100)) (= I42-y 0)) (ite B42-F (and (> I42-m 0) (<= I42-m 12)) (= I42-m 0)) (ite B42-F (and (> I42-d 0) (<= I42-d (ite (or (= I42-m 0) (= I42-m 1) (= I42-m 3) (= I42-m 5) (= I42-m 7) (= I42-m 8) (= I42-m 10) (= I42-m 12)) 31 (ite (or (= I42-m 4) (= I42-m 6) (= I42-m 9) (= I42-m 11)) 30 (ite (= (mod I42-y 4) 0) 29 28))))) (= I42-d 0))))
(assert (and (ite B44-F (and (> I44-y 1900) (< I44-y 2100)) (= I44-y 0)) (ite B44-F (and (> I44-m 0) (<= I44-m 12)) (= I44-m 0)) (ite B44-F (and (> I44-d 0) (<= I44-d (ite (or (= I44-m 0) (= I44-m 1) (= I44-m 3) (= I44-m 5) (= I44-m 7) (= I44-m 8) (= I44-m 10) (= I44-m 12)) 31 (ite (or (= I44-m 4) (= I44-m 6) (= I44-m 9) (= I44-m 11)) 30 (ite (= (mod I44-y 4) 0) 29 28))))) (= I44-d 0))))
(assert (or (< I21-s-y I21-e-y) (and (= I21-s-y I21-e-y) (< I21-s-m I21-e-m)) (and (= I21-s-y I21-e-y) (= I21-s-m I21-e-m) (<= I21-s-d I21-e-d))))
(assert (or (< I31-s-y I31-e-y) (and (= I31-s-y I31-e-y) (< I31-s-m I31-e-m)) (and (= I31-s-y I31-e-y) (= I31-s-m I31-e-m) (<= I31-s-d I31-e-d))))
(set-info :base-constraint-type |domainconstraints string fields|)
(assert (ite B41-F (and (>= I41-N 0) (<= I41-N 9999)) (= I41-N 0)))
(set-info :base-constraint-type |domainconstraints index-based string fields|)
(assert (or (= I4-N 0) (= I4-N 1)))
(assert (ite B10-F (or (= I10-N 1) (= I10-N 2) (= I10-N 3) (= I10-N 4) (= I10-N 5) (= I10-N 6) (= I10-N 7) (= I10-N 8) (= I10-N 9) (= I10-N 10) (= I10-N 11) (= I10-N 12)) (= I10-N 0)))
(assert (or (= I3-i 1) (= I3-i 2) (= I3-i 3) (= I3-i 4) (= I3-i 5) (= I3-i 6) (= I3-i 7) (= I3-i 8) (= I3-i 9) (= I3-i 10) (= I3-i 11) (= I3-i 12) (= I3-i 13) (= I3-i 14) (= I3-i 15)))
(assert (ite B5-F (or (= I5-i 1) (= I5-i 2) (= I5-i 3) (= I5-i 4) (= I5-i 5) (= I5-i 6) (= I5-i 7) (= I5-i 8) (= I5-i 9) (= I5-i 10) (= I5-i 11) (= I5-i 12) (= I5-i 13) (= I5-i 14) (= I5-i 15)) (= I5-i 0)))
(set-info :base-constraint-type |constraints, guarding filling of calculations|)
(assert (= (or B48-F B53-F B58-F) B73-F))
(assert (= (or B49-F B54-F B59-F) B74-F))
(assert (= (or B85-F B84-F B86-F B82-F B83-F B87-F B88-F B89-F B90-F B91-F B98-F B92-F B95-F B96-F B93-F B94-F B97-F B73-F) B99-F))
(set-info :base-constraint-type |constraints from validation-rules|)
(assert (not (and B79-F B78-F (distinct I78 0) (distinct I79 (div (* I78 15) 100)))))
(assert (not (and B76-F (or (< I76-y 2025) (> I76-y 2025)))))
(assert (not (and (or B103-F B102-F) (not (and B103-F B102-F)))))
(assert (not (and (or B48-F B53-F B58-F) (not B73-F))))
(assert (not (and (or B49-F B54-F B59-F) (not B74-F))))
(assert (not (and B73-F (not B82-F) (not B83-F) (not B84-F) (not B85-F) (not B86-F) (not B87-F) (not B88-F) (not B89-F) (not B90-F) (not B91-F) (not B92-F) (not B93-F) (not B94-F) (not B95-F) (not B96-F) (not B97-F) (not B98-F) (not B99-F))))
(assert (not (and B73-F (or B48-F B53-F B58-F) (distinct I73 (+ I13 I16 I19 I23 I26 I29 I33 I36 I39 I48 I53 I58 I61 I64 I67 I70)))))
(assert (not (and B74-F (or B49-F B54-F B59-F) (distinct I74 (+ I14 I17 I20 I24 I27 I30 I34 I37 I40 I49 I54 I59 I62 I65 I68 I71)))))
(assert (not (and B9-F (or (< I9-y 2025) (> I9-y 2025)))))
(assert (not (and B43-F (not B44-F))))
(assert (not (and B43-F B42-F (or (< I43-y I42-y) (and (= I43-y I42-y) (< I43-m I42-m)) (and (= I43-y I42-y) (= I43-m I42-m) (< I43-d I42-d)) (and (= I43-y I42-y) (= I43-m I42-m) (= I43-d I42-d))))))
(assert (not (and B43-F (< I43-y I41-N))))
(assert (not (and B43-F B44-F (or (< I43-y I44-y) (and (= I43-y I44-y) (< I43-m I44-m)) (and (= I43-y I44-y) (= I43-m I44-m) (< I43-d I44-d))))))
(assert (not (and B43-F (or (< I43-y (ite B9-F I9-y 0)) (and (= I43-y (ite B9-F I9-y 0)) (< I43-m I10-N))))))
(assert (not (and B44-F (< I44-y 2023))))
(assert (not (and (not (and B41-F B42-F)) (or B45-F B50-F B55-F))))
(assert (not (and B42-F (distinct I42-y I41-N))))
(assert (not (and (or B41-F B42-F B44-F) (not B45-F) (not B50-F) (not B55-F))))
(assert (not (and B42-F (or (> I42-y (ite B9-F I9-y 0)) (and (= I42-y (ite B9-F I9-y 0)) (> I42-m I10-N))))))
(assert (not (and B41-F (> I41-N 2025))))
(assert (not (and B41-F (or (and B42-F (or (< I42-y 2022) (and (= I42-y 2022) (< I42-m 10)) (and (= I42-y 2022) (= I42-m 10) (< I42-d 1))) (< I41-N 2025)) (and B42-F (or (> I42-y 2022) (and (= I42-y 2022) (> I42-m 10)) (and (= I42-y 2022) (= I42-m 10) (> I42-d 1)) (and (= I42-y 2022) (= I42-m 10) (= I42-d 1))) (or (and (< I41-N 2025) (= I41-N 2024) (>= I10-N 5) (<= I10-N 12)) (and (< I41-N 2025) (distinct I41-N 2024))))))))
(assert (not (and B42-F (or (and (= I42-y (ite B9-F I9-y 0)) (< I42-m (- I10-N 4))) (and (distinct I42-y (ite B9-F I9-y 0)) (< I42-y (- (ite B9-F I9-y 0) 1))) (and (distinct I42-y (ite B9-F I9-y 0)) (= I42-y (- (ite B9-F I9-y 0) 1)) (> I42-m 8) (< I42-m (- (+ I10-N 12) 4))) (and (distinct I42-y (ite B9-F I9-y 0)) (= I42-y (- (ite B9-F I9-y 0) 1)) (<= I42-m 8))))))
(assert (not (and (or B47-F B52-F B57-F) (or (and (distinct I47 0) (= I48 0)) (and (distinct I52 0) (= I53 0)) (and (distinct I57 0) (= I58 0))))))
(assert (not (and B48-F B49-F (> (ite (>= (- I49 (div (* I48 55) 10)) 0) (- I49 (div (* I48 55) 10)) (- (- I49 (div (* I48 55) 10)))) 100))))
(assert (not (and (or B46-F B47-F B48-F B49-F) (not (and B46-F B47-F B48-F B49-F)))))
(assert (not (and (or B48-F B53-F B58-F) (or (> (* I48 100) (+ (* I47 15) 100)) (> (* I53 100) (+ (* I52 15) 100)) (> (* I58 100) (+ (* I57 15) 100))))))
(assert (not (and B53-F B54-F (> (ite (>= (- I54 (div (* I53 55) 10)) 0) (- I54 (div (* I53 55) 10)) (- (- I54 (div (* I53 55) 10)))) 100))))
(assert (not (and (or B51-F B52-F B53-F B54-F) (not (and B51-F B52-F B53-F B54-F)))))
(assert (not (and B58-F B59-F (> (ite (>= (- I59 (div (* I58 55) 10)) 0) (- I59 (div (* I58 55) 10)) (- (- I59 (div (* I58 55) 10)))) 100))))
(assert (not (and (or B56-F B57-F B58-F B59-F) (not (and B56-F B57-F B58-F B59-F)))))
(assert (not (or (and (not B1-F) (not B2-F)) (and B1-F B2-F))))
(assert (not (and B1-F B76-F)))
(assert (not (and B1-F (not (and B9-F B10-F)))))
(assert (not (and B1-F B9-F B10-F (or (< 2026 I9-y) (and (= 2026 I9-y) (<= 6 I10-N))))))
(assert (not (and B1-F B9-F B10-F (or (< 2027 I9-y) (and (= 2027 I9-y) (<= 6 I10-N))))))
(assert (not (and B2-F (or B9-F B10-F B11-F B41-F B42-F B43-F B44-F B46-F B47-F B48-F B49-F B51-F B52-F B53-F B54-F B56-F B57-F B58-F B59-F B73-F B74-F))))
(assert (not (and B2-F (not (and B76-F B78-F B79-F)))))
(assert (not (and B105-F (not (and B107-F B108-F)))))
(assert (not (and (not B105-F) (or B107-F B108-F))))
(assert (not (and B5-F (= I4-N 0))))
(assert (not (and B5-F (= I5-i I3-i))))
(assert (not (and B75-F (not B2-F))))
(assert (not (and (or B85-F B84-F B86-F B82-F B83-F B87-F B88-F B89-F B90-F B91-F B98-F B92-F B95-F B96-F B93-F B94-F B97-F) (not B99-F))))
(assert (not (and B99-F (or B85-F B84-F B86-F B82-F B83-F B87-F B88-F B89-F B90-F B91-F B98-F B92-F B95-F B96-F B93-F B94-F B97-F) (distinct I100 (+ I85 I84 I86 I82 I83 I87 I88 I89 I90 I91 I98 I92 I95 I96 I93 I94 I97)))))
(assert (not (and B99-F (not B85-F) (not B84-F) (not B86-F) (not B82-F) (not B83-F) (not B87-F) (not B88-F) (not B89-F) (not B90-F) (not B91-F) (not B98-F) (not B92-F) (not B95-F) (not B96-F) (not B93-F) (not B94-F) (not B97-F))))
(assert (not (and B99-F B73-F (distinct I100 (* I73 100)))))
(set-info :major-phase |control constraints|)
(push 1)
(assert B108-F)
(set-info :status sat)
(check-sat)
(push 1)
(assert B86-F)
(set-info :status sat)
(check-sat)
(push 1)
(assert B99-F)
(set-info :status sat)
(check-sat)
(push 1)
(assert B46-F)
(set-info :status sat)
(check-sat)
(push 1)
(assert B87-F)
(set-info :status sat)
(check-sat)
(push 1)
(assert B88-F)
(set-info :status sat)
(check-sat)
(push 1)
(assert B8-F)
(set-info :status sat)
(check-sat)
(push 1)
(assert B110-F)
(set-info :status sat)
(check-sat)
(push 1)
(assert B54-F)
(set-info :status sat)
(check-sat)
(push 1)
(assert B6-F)
(set-info :status sat)
(check-sat)
(push 1)
(assert B53-F)
(set-info :status sat)
(check-sat)
(push 1)
(assert B93-F)
(set-info :status sat)
(check-sat)
(push 1)
(assert B94-F)
(set-info :status sat)
(check-sat)
(push 1)
(assert B96-F)
(set-info :status sat)
(check-sat)
(push 1)
(assert B82-F)
(set-info :status sat)
(check-sat)
(push 1)
(assert B83-F)
(set-info :status sat)
(check-sat)
(push 1)
(assert B78-F)
(set-info :status unsat)
(check-sat)
(pop 1)
(push 1)
(assert B95-F)
(set-info :status sat)
(check-sat)
(push 1)
(assert B41-F)
(set-info :status sat)
(check-sat)
(push 1)
(assert B43-F)
(set-info :status sat)
(check-sat)
(push 1)
(assert B85-F)
(set-info :status sat)
(check-sat)
(push 1)
(assert B109-F)
(set-info :status sat)
(check-sat)
(push 1)
(assert B84-F)
(set-info :status sat)
(check-sat)
(push 1)
(assert B57-F)
(set-info :status sat)
(check-sat)
(push 1)
(assert B92-F)
(set-info :status sat)
(check-sat)
(push 1)
(assert B107-F)
(set-info :status sat)
(check-sat)
(push 1)
(assert B10-F)
(set-info :status sat)
(check-sat)
(push 1)
(assert B48-F)
(set-info :status sat)
(check-sat)
(push 1)
(assert B49-F)
(set-info :status sat)
(check-sat)
(push 1)
(assert B47-F)
(set-info :status sat)
(check-sat)
(push 1)
(assert B2-F)
(set-info :status unsat)
(check-sat)
(pop 1)
(push 1)
(assert B103-F)
(set-info :status sat)
(check-sat)
(push 1)
(assert B59-F)
(set-info :status sat)
(check-sat)
(push 1)
(assert B97-F)
(set-info :status sat)
(check-sat)
(push 1)
(assert B44-F)
(set-info :status sat)
(check-sat)
(push 1)
(assert B79-F)
(set-info :status unsat)
(check-sat)
(pop 1)
(push 1)
(assert B58-F)
(set-info :status sat)
(check-sat)
(push 1)
(assert B91-F)
(set-info :status sat)
(check-sat)
(push 1)
(assert B52-F)
(set-info :status sat)
(check-sat)
(push 1)
(assert B98-F)
(set-info :status sat)
(check-sat)
(push 1)
(assert B111-F)
(set-info :status sat)
(check-sat)
(push 1)
(assert B7-F)
(set-info :status sat)
(check-sat)
(push 1)
(assert B42-F)
(set-info :status sat)
(check-sat)
(push 1)
(assert B9-F)
(set-info :status sat)
(check-sat)
(push 1)
(assert B90-F)
(set-info :status sat)
(check-sat)
(push 1)
(assert B51-F)
(set-info :status sat)
(check-sat)
(push 1)
(assert B56-F)
(set-info :status sat)
(check-sat)
(push 1)
(assert B76-F)
(set-info :status unsat)
(check-sat)
(pop 1)
(push 1)
(assert B73-F)
(set-info :status sat)
(check-sat)
(push 1)
(assert B89-F)
(set-info :status sat)
(check-sat)
(push 1)
(assert B5-F)
(set-info :status sat)
(check-sat)
(push 1)
(assert B11-F)
(set-info :status sat)
(check-sat)
(push 1)
(assert B102-F)
(set-info :status sat)
(check-sat)
(push 1)
(assert B105-F)
(set-info :status sat)
(check-sat)
(push 1)
(assert B74-F)
(set-info :status sat)
(check-sat)
(exit)

